NAME: ant15
TYPE: TSP
COMMENT: 21-city problem (Groetschel)
DIMENSION: 15
EDGE_WEIGHT_TYPE: EXPLICIT
EDGE_WEIGHT_FORMAT: LOWER_DIAG_ROW 
EDGE_WEIGHT_SECTION
 0  
 2   0  
20   2   0
20  20   1   0  
20  20  20   3   0  
20  20  20  20   2   0  
20  20  20  20  20   3   0  
20  20  20  20  20  20   2   0  
20  20  20  20  20  20  20   4   0  
20  20  20  20  20  20  20  20   1   0  
20  20  20  20  20  20  20  20  20   2   0  
20  20  20  20  20  20  20  20  20  20   3   0  
20  20  20  20  20  20  20  20  20  20  20   1   0  
20  20  20  20  20  20  20  20  20  20  20  20   1   0  
20  20  20  20  20  20  20  20  20  20  20  20  20   2   0
EOF      